(set-info :smt-lib-version 2.6)
(set-logic QF_S)
(set-info :source |
Generated by: Murphy Berzish, Mitja Kulczynski, Federico Mora, Florin Manea, Joel Day, Dirk Nowotka, Vijay Ganesh, Zhengyang Lu
Generated on: 2020-10-01
Description: Translated from a collection of real-world regex queries, AutomataArk, collected by Loris D’Antoni and Fang Wang: https://github.com/lorisdanto/automatark
Application: Evaluate solvers on real-world regex queries
Target solver: Z3str3RE, CVC4, OSTRICH, Z3seq, Z3str3, Z3-Trau
Publications: Berzish, M., Kulczynski, M., Mora, F., Manea, F., Day, J. D., Nowotka, D., & Ganesh, V. (2021, July). An SMT solver for regular expressions and linear arithmetic over string length. In CAV 2021.
|)
(set-info :license "https://creativecommons.org/licenses/by/4.0/")
(set-info :category "industrial")
(set-info :status unsat)

(declare-const X String)
(assert (str.in_re X (re.++ (str.to_re "\u{a}") ((_ re.loop 4 4) (re.range "0" "9")) (re.opt (re.++ (re.opt (str.to_re "-")) (re.union (re.++ (str.to_re "0") (re.range "1" "9")) (re.++ (str.to_re "1") (re.range "0" "2"))) (re.opt (re.++ (re.opt (str.to_re "-")) (re.union (re.++ (str.to_re "0") (re.range "1" "9")) (re.++ (re.range "1" "2") (re.range "0" "9")) (re.++ (str.to_re "3") (re.range "0" "1"))) (re.opt (re.++ (str.to_re "T") (re.union (re.++ (str.to_re "24:00") (re.opt (re.++ (str.to_re ":00") (re.opt (re.++ (str.to_re ".") (re.+ (str.to_re "0"))))))) (re.++ (re.opt (re.++ (str.to_re ":") (re.range "0" "5") (re.range "0" "9") (re.opt (re.++ (str.to_re ".") (re.+ (re.range "0" "9")))))) (re.union (re.++ (re.range "0" "1") (re.range "0" "9")) (re.++ (str.to_re "2") (re.range "0" "3"))) (str.to_re ":") (re.range "0" "5") (re.range "0" "9"))) (re.union (re.++ (re.union (str.to_re "+") (str.to_re "-")) (re.union (str.to_re "14:00") (re.++ (re.union (re.++ (str.to_re "0") (re.range "0" "9")) (re.++ (str.to_re "1") (re.range "0" "3"))) (str.to_re ":") (re.range "0" "5") (re.range "0" "9")))) (str.to_re "Z")))))))))))
(assert (not (str.in_re X (re.++ (re.union (re.++ (re.opt (str.to_re "(")) (str.to_re "0") ((_ re.loop 4 4) (re.range "0" "9")) (re.opt (str.to_re ")")) (re.opt (re.union (str.to_re " ") (str.to_re "\u{9}") (str.to_re "\u{a}") (str.to_re "\u{c}") (str.to_re "\u{d}"))) ((_ re.loop 3 3) (re.range "0" "9")) (re.opt (re.union (str.to_re " ") (str.to_re "\u{9}") (str.to_re "\u{a}") (str.to_re "\u{c}") (str.to_re "\u{d}"))) ((_ re.loop 3 3) (re.range "0" "9"))) (re.++ (re.opt (str.to_re "(")) (str.to_re "0") ((_ re.loop 3 3) (re.range "0" "9")) (re.opt (str.to_re ")")) (re.opt (re.union (str.to_re " ") (str.to_re "\u{9}") (str.to_re "\u{a}") (str.to_re "\u{c}") (str.to_re "\u{d}"))) ((_ re.loop 3 3) (re.range "0" "9")) (re.opt (re.union (str.to_re " ") (str.to_re "\u{9}") (str.to_re "\u{a}") (str.to_re "\u{c}") (str.to_re "\u{d}"))) ((_ re.loop 4 4) (re.range "0" "9"))) (re.++ (re.opt (str.to_re "(")) (str.to_re "0") ((_ re.loop 2 2) (re.range "0" "9")) (re.opt (str.to_re ")")) (re.opt (re.union (str.to_re " ") (str.to_re "\u{9}") (str.to_re "\u{a}") (str.to_re "\u{c}") (str.to_re "\u{d}"))) ((_ re.loop 4 4) (re.range "0" "9")) (re.opt (re.union (str.to_re " ") (str.to_re "\u{9}") (str.to_re "\u{a}") (str.to_re "\u{c}") (str.to_re "\u{d}"))) ((_ re.loop 4 4) (re.range "0" "9")))) (re.opt (re.++ (re.opt (re.union (str.to_re " ") (str.to_re "\u{9}") (str.to_re "\u{a}") (str.to_re "\u{c}") (str.to_re "\u{d}"))) (str.to_re "#") (re.union ((_ re.loop 4 4) (re.range "0" "9")) ((_ re.loop 3 3) (re.range "0" "9"))))) (str.to_re "\u{a}")))))
(assert (not (str.in_re X (re.++ (re.union (re.++ (re.opt (str.to_re "0")) (re.range "1" "9")) (re.++ (re.union (str.to_re "1") (str.to_re ",") (str.to_re "2")) (re.range "0" "9")) (re.++ (str.to_re "3") (re.union (str.to_re "0") (str.to_re ",") (str.to_re "1")))) (re.union (str.to_re "-") (str.to_re "/")) (re.union (re.++ (re.opt (str.to_re "0")) (re.range "1" "9")) (re.++ (str.to_re "1") (re.union (str.to_re "0") (str.to_re ",") (str.to_re "1") (str.to_re "2")))) (re.union (str.to_re "-") (str.to_re "/")) (re.union ((_ re.loop 1 2) (re.range "0" "9")) (re.++ (str.to_re "19") (re.range "0" "9") (re.range "0" "9")) (re.++ (str.to_re "20") (re.range "0" "9") (re.range "0" "9"))) (str.to_re "\u{a}")))))
(assert (str.in_re X (re.union (re.++ ((_ re.loop 1 2) (re.range "0" "9")) (str.to_re ".") ((_ re.loop 1 2) (re.range "0" "9")) (str.to_re ".") ((_ re.loop 4 4) (re.range "0" "9"))) (re.++ ((_ re.loop 1 2) (re.range "0" "9")) (str.to_re ".") ((_ re.loop 1 2) (re.range "0" "9"))) (re.++ ((_ re.loop 1 2) (re.range "0" "9")) (str.to_re "\u{a}")))))
(assert (not (str.in_re X (re.++ (str.to_re "/.rp") (re.union (str.to_re "?") (str.to_re "\u{5c}") (str.to_re "/")) (str.to_re "/smiU\u{a}")))))
(check-sat)

(exit)
